50 5
598
598
897
598
1495
2990
2990
2093
1794
1495
299
2093
2392
2990
2990
598
1794
2093
1495
2990
2392
2691
897
299
2990
2691
299
2392
1196
1495
1495
299
897
1495
1196
2691
2093
2392
1794
299
2691
2093
1196
1196
1794
2691
299
2392
1196
2990
20289
13171
17699
14787
19867
